10 45
1 2 29
1 3 5
1 4 8
1 5 20
1 6 26
1 7 19
1 8 18
1 9 11
1 10 29
2 3 28
2 4 27
2 5 16
2 6 11
2 7 2
2 8 8
2 9 0
2 10 23
3 4 22
3 5 2
3 6 27
3 7 15
3 8 2
3 9 2
3 10 18
4 5 22
4 6 23
4 7 8
4 8 24
4 9 22
4 10 28
5 6 16
5 7 2
5 8 11
5 9 11
5 10 20
6 7 8
6 8 8
6 9 12
6 10 1
7 8 28
7 9 1
7 10 24
8 9 16
8 10 28
9 10 27
